WARNING: for repeatability, setting FPU to use double precision
============================[ Problem Statistics ]=============================
|                                                                             |
|  Number of variables:           100                                         |
|  Number of clauses:             449                                         |
|  Parse time:                   0.00 s                                       |
|  Eliminated clauses:           0.00 Mb                                      |
|  Simplification time:          0.00 s                                       |
|                                                                             |
============================[ Search Statistics ]==============================
| Conflicts |          ORIGINAL         |          LEARNT          | Progress |
|           |    Vars  Clauses Literals |    Limit  Clauses Lit/Cl |          |
===============================================================================
|       100 |      97      446     1350 |      163      100      7 |  0.020 % |
|       250 |      97      446     1350 |      179      164      6 |  0.040 % |
===============================================================================
restarts              : 3
conflicts             : 259            (82301 /sec)
decisions             : 318            (0.00 % random) (101049 /sec)
propagations          : 5870           (1865269 /sec)
conflict literals     : 1716           (23.08 % deleted)
Memory used           : 13.00 MB
CPU time              : 0.003147 s

SATISFIABLE
